10 8 3.11 1 3 2 8 8194 4098
3 2 0 3 2 0 2 1
1 100
1 9
2 8
3 9
1 450
2 1430
1 1 0 510
2 1 0 540
3 1 0 530
4 2 0 570
5 2 0 540
6 2 0 550
7 2 0 580
8 2 0 550
0 3 1 170 2 170 3 110 9 1 2 2 9 1 5 1 7 1 2 2 2 6 13 1 1 1 5 1 4 2 4 4 19 1 5 2 17 1 3 3 10 1 5 1 20 1 5 3 3 1 8 1 4 4 8 1 1 2 10 1 4 1 4 2 12 1 3 3 5 1 3 1 5 1 4 4 10 1 4 2 3 1 11 1 3 2 5 1 2 3 14 1 2 2 4 1 16 1 4 2 18 1 4 4 5 1 4 5 17 1 2 1 3 1 7 1 1 2 17 1 1 3 7 1 2 3 3 3 5 1 3 2 13 1 4 4 17 1 4 
0 3 1 90 2 140 3 130 11 1 2 1 16 1 3 3 9 1 5 3 4 4 14 1 1 1 20 1 1 3 17 1 3 2 7 1 4 3 4 1 13 1 5 3 7 1 3 2 5 1 2 4 16 1 2 3 4 1 5 1 5 2 7 1 1 3 16 1 4 4 13 1 1 1 3 3 6 1 1 1 19 1 5 2 17 1 5 3 4 1 13 1 4 2 12 1 5 3 7 1 2 4 12 1 4 1 4 2 12 1 4 1 10 1 2 3 10 1 4 4 10 1 3 2 2 1 8 1 1 4 7 1 4 1 2 1 8 1 5 2 17 1 5 3 3 2 12 1 2 1 6 1 5 4 13 1 4 2 3 1 17 1 1 2 17 1 1 3 20 1 4 
0 3 1 130 2 90 3 130 8 2 2 1 6 1 4 6 17 1 3 2 3 4 11 1 2 8 18 1 3 3 14 1 3 3 3 1 7 1 2 5 12 1 3 2 19 1 3 1 3 3 13 1 5 1 18 1 3 2 9 1 1 2 2 4 14 1 4 5 13 1 1 3 3 3 19 1 1 1 14 1 2 2 10 1 2 1 2 1 12 1 5 2 5 1 4 3 3 1 8 1 1 2 11 1 4 3 8 1 5 
0 3 1 120 2 140 3 160 9 3 3 4 11 1 2 2 17 1 2 3 7 1 5 2 3 1 9 1 2 2 18 1 4 3 20 1 4 3 4 4 20 1 2 1 20 1 3 6 8 1 3 2 16 1 4 1 4 1 10 1 5 2 15 1 2 3 10 1 2 4 6 1 2 2 2 1 8 1 1 3 19 1 5 3 2 4 14 1 4 1 5 1 3 3 3 3 16 1 2 2 6 1 3 4 11 1 1 1 2 2 9 1 3 3 18 1 2 2 4 2 6 1 1 1 10 1 5 3 15 1 5 4 17 1 5 
3 1 90 2 130 3 110 5 4 150 5 170 6 90 7 120 8 150 10 3 2 1 19 1 2 4 13 1 1 3 2 1 6 1 3 2 12 1 5 1 2 1 20 1 5 2 20 1 2 3 4 1 17 1 5 2 6 1 5 3 6 1 5 4 11 1 2 1 2 2 11 1 1 3 7 1 3 3 2 1 11 1 4 2 15 1 1 1 4 1 13 1 3 2 10 1 2 3 7 1 2 4 19 1 2 1 4 3 8 1 1 2 15 1 1 1 7 1 2 4 8 1 1 2 4 1 17 1 3 2 15 1 2 3 7 1 1 4 18 1 5 3 4 1 13 1 4 2 20 1 5 3 8 1 2 4 11 1 3 
3 1 140 2 140 3 170 5 4 160 5 110 6 170 7 160 8 130 8 2 3 4 7 1 2 5 15 1 3 6 20 1 3 3 4 3 8 1 4 1 15 1 4 2 19 1 1 4 12 1 1 3 3 3 17 1 1 2 12 1 2 1 12 1 1 1 2 1 16 1 5 4 16 1 3 1 2 2 15 1 1 1 16 1 4 1 4 1 17 1 2 4 19 1 3 2 20 1 3 5 13 1 3 1 4 2 18 1 1 3 14 1 3 1 19 1 2 4 18 1 4 2 2 3 12 1 2 1 18 1 3 
3 1 130 2 160 3 150 5 4 60 5 90 6 120 7 180 8 190 11 3 4 2 18 1 5 1 14 1 1 3 14 1 5 4 16 1 5 2 2 1 17 1 1 4 16 1 4 3 3 1 14 1 2 3 16 1 3 2 8 1 5 1 3 2 15 1 4 1 18 1 4 3 19 1 5 3 3 2 19 1 5 1 6 1 2 3 10 1 4 2 4 1 6 1 5 4 13 1 2 2 10 1 4 3 9 1 2 3 4 2 10 1 4 3 16 1 4 1 7 1 2 4 13 1 2 1 3 3 14 1 5 2 19 1 1 4 10 1 1 1 3 2 13 1 2 4 16 1 2 1 14 1 4 2 4 1 10 1 1 2 14 1 4 3 10 1 3 4 13 1 3 1 4 4 7 1 3 1 6 1 3 2 15 1 4 3 20 1 4 
3 1 150 2 110 3 100 5 4 200 5 170 6 170 7 120 8 80 12 2 4 4 14 1 4 5 13 1 5 2 13 1 2 1 12 1 3 1 4 3 17 1 1 5 5 1 5 2 10 1 3 4 7 1 5 3 2 2 17 1 4 1 15 1 4 2 3 1 20 1 5 2 12 1 5 3 5 1 1 2 3 6 13 1 1 3 12 1 5 4 18 1 4 2 3 8 14 1 3 3 15 1 2 1 7 1 4 3 4 2 9 1 2 1 7 1 2 3 17 1 5 4 17 1 3 2 4 1 6 1 3 2 13 1 4 3 8 1 1 4 6 1 1 3 4 1 18 1 4 3 7 1 3 4 20 1 4 2 13 1 1 1 4 2 16 1 1 1 10 1 4 3 18 1 2 4 5 1 2 2 4 3 14 1 4 1 18 1 1 2 16 1 4 4 15 1 3 1 2 3 5 1 2 1 20 1 2 
5 4 230 5 270 6 310 7 280 8 270 0 10 3 4 1 10 1 3 4 12 1 2 3 5 1 1 2 12 1 5 3 4 2 9 1 5 1 8 1 3 4 18 1 5 6 5 1 3 2 3 1 12 1 4 2 19 1 3 3 17 1 1 3 2 2 7 1 2 1 9 1 3 1 3 2 7 1 3 1 8 1 4 4 14 1 1 3 4 1 12 1 4 2 18 1 2 3 12 1 5 4 7 1 4 1 4 1 6 1 5 2 13 1 3 3 15 1 2 4 10 1 4 2 3 1 7 1 1 2 10 1 2 3 18 1 2 1 2 2 7 1 1 1 20 1 3 2 3 2 8 1 4 3 9 1 1 4 13 1 4 
5 4 340 5 270 6 240 7 300 8 280 0 11 1 3 1 11 1 5 2 8 1 4 3 5 1 5 3 3 1 17 1 4 2 13 1 5 3 7 1 4 1 4 1 16 1 5 2 11 1 1 3 17 1 2 4 13 1 5 2 3 2 8 1 5 1 15 1 4 4 5 1 2 2 4 3 7 1 1 2 20 1 4 1 14 1 1 4 11 1 1 2 3 5 11 1 1 2 10 1 4 1 6 1 1 1 2 1 17 1 5 3 7 1 1 3 4 1 14 1 1 2 6 1 4 3 5 1 1 4 7 1 1 3 2 1 13 1 1 2 16 1 1 2 2 1 7 1 1 2 18 1 2 1 3 1 15 1 2 2 6 1 1 3 8 1 5 
